c Standarized MaxSat Instance
c{
c "sha1sum": "842c0d3f486b607ba383b1e1c635a3f4384950a2",
c "nvars": 41,
c "ncls": 1640,
c "nhards": 0,
c "nhard_len_stats":
c    { "min": 0, "max": 0, "ave": 0.00,
c      "stddev": 0.00 },
c "nsofts": 1640,
c "nsoft_len_stats":
c    { "min": 2, "max": 2, "ave": 2.00,
c      "stddev": 0.00 },
c "nsoft_wts": 10,
c "soft_wt_stats":
c    { "min": 1, "max": 10, "ave": 5.61,
c      "stddev": 2.85 }
c}
c------------------------------------------------------------
c File:  hamming10-2.clq
c
c Source: Panos Pardalos pardalos@math.ufl.edu
c
c Reference: hamminga-b is a Hamming graph on a-bit words with
c            an edge if and only if the two words are at least
c            hamming distance b apart
c
p wcnf 41 1640 9209
9 1 2 0
9 -1 -2 0
4 1 3 0
4 -1 -3 0
8 1 4 0
8 -1 -4 0
8 1 5 0
8 -1 -5 0
10 1 6 0
10 -1 -6 0
2 1 7 0
2 -1 -7 0
4 1 8 0
4 -1 -8 0
8 1 9 0
8 -1 -9 0
3 1 10 0
3 -1 -10 0
6 1 11 0
6 -1 -11 0
5 1 12 0
5 -1 -12 0
7 1 13 0
7 -1 -13 0
4 1 14 0
4 -1 -14 0
6 1 15 0
6 -1 -15 0
10 1 16 0
10 -1 -16 0
10 1 17 0
10 -1 -17 0
7 1 18 0
7 -1 -18 0
8 1 19 0
8 -1 -19 0
2 1 20 0
2 -1 -20 0
7 1 21 0
7 -1 -21 0
1 1 22 0
1 -1 -22 0
3 1 23 0
3 -1 -23 0
2 1 24 0
2 -1 -24 0
9 1 25 0
9 -1 -25 0
2 1 26 0
2 -1 -26 0
5 1 27 0
5 -1 -27 0
2 1 28 0
2 -1 -28 0
2 1 29 0
2 -1 -29 0
10 1 30 0
10 -1 -30 0
3 1 31 0
3 -1 -31 0
6 1 32 0
6 -1 -32 0
9 1 33 0
9 -1 -33 0
7 1 34 0
7 -1 -34 0
3 1 35 0
3 -1 -35 0
7 1 36 0
7 -1 -36 0
6 1 37 0
6 -1 -37 0
5 1 38 0
5 -1 -38 0
10 1 39 0
10 -1 -39 0
3 1 40 0
3 -1 -40 0
8 1 41 0
8 -1 -41 0
6 2 3 0
6 -2 -3 0
8 2 4 0
8 -2 -4 0
5 2 5 0
5 -2 -5 0
9 2 6 0
9 -2 -6 0
3 2 7 0
3 -2 -7 0
4 2 8 0
4 -2 -8 0
9 2 9 0
9 -2 -9 0
10 2 10 0
10 -2 -10 0
1 2 11 0
1 -2 -11 0
10 2 12 0
10 -2 -12 0
6 2 13 0
6 -2 -13 0
1 2 14 0
1 -2 -14 0
2 2 15 0
2 -2 -15 0
7 2 16 0
7 -2 -16 0
9 2 17 0
9 -2 -17 0
4 2 18 0
4 -2 -18 0
1 2 19 0
1 -2 -19 0
1 2 20 0
1 -2 -20 0
5 2 21 0
5 -2 -21 0
1 2 22 0
1 -2 -22 0
3 2 23 0
3 -2 -23 0
10 2 24 0
10 -2 -24 0
10 2 25 0
10 -2 -25 0
9 2 26 0
9 -2 -26 0
3 2 27 0
3 -2 -27 0
6 2 28 0
6 -2 -28 0
4 2 29 0
4 -2 -29 0
8 2 30 0
8 -2 -30 0
6 2 31 0
6 -2 -31 0
7 2 32 0
7 -2 -32 0
6 2 33 0
6 -2 -33 0
1 2 34 0
1 -2 -34 0
5 2 35 0
5 -2 -35 0
10 2 36 0
10 -2 -36 0
10 2 37 0
10 -2 -37 0
8 2 38 0
8 -2 -38 0
3 2 39 0
3 -2 -39 0
8 2 40 0
8 -2 -40 0
7 2 41 0
7 -2 -41 0
4 3 4 0
4 -3 -4 0
7 3 5 0
7 -3 -5 0
2 3 6 0
2 -3 -6 0
5 3 7 0
5 -3 -7 0
9 3 8 0
9 -3 -8 0
9 3 9 0
9 -3 -9 0
4 3 10 0
4 -3 -10 0
3 3 11 0
3 -3 -11 0
9 3 12 0
9 -3 -12 0
4 3 13 0
4 -3 -13 0
7 3 14 0
7 -3 -14 0
10 3 15 0
10 -3 -15 0
6 3 16 0
6 -3 -16 0
7 3 17 0
7 -3 -17 0
9 3 18 0
9 -3 -18 0
5 3 19 0
5 -3 -19 0
10 3 20 0
10 -3 -20 0
4 3 21 0
4 -3 -21 0
9 3 22 0
9 -3 -22 0
7 3 23 0
7 -3 -23 0
10 3 24 0
10 -3 -24 0
5 3 25 0
5 -3 -25 0
3 3 26 0
3 -3 -26 0
10 3 27 0
10 -3 -27 0
10 3 28 0
10 -3 -28 0
2 3 29 0
2 -3 -29 0
9 3 30 0
9 -3 -30 0
7 3 31 0
7 -3 -31 0
5 3 32 0
5 -3 -32 0
7 3 33 0
7 -3 -33 0
3 3 34 0
3 -3 -34 0
8 3 35 0
8 -3 -35 0
4 3 36 0
4 -3 -36 0
5 3 37 0
5 -3 -37 0
3 3 38 0
3 -3 -38 0
2 3 39 0
2 -3 -39 0
3 3 40 0
3 -3 -40 0
6 3 41 0
6 -3 -41 0
5 4 5 0
5 -4 -5 0
2 4 6 0
2 -4 -6 0
10 4 7 0
10 -4 -7 0
2 4 8 0
2 -4 -8 0
2 4 9 0
2 -4 -9 0
5 4 10 0
5 -4 -10 0
8 4 11 0
8 -4 -11 0
10 4 12 0
10 -4 -12 0
10 4 13 0
10 -4 -13 0
7 4 14 0
7 -4 -14 0
4 4 15 0
4 -4 -15 0
8 4 16 0
8 -4 -16 0
4 4 17 0
4 -4 -17 0
3 4 18 0
3 -4 -18 0
3 4 19 0
3 -4 -19 0
6 4 20 0
6 -4 -20 0
3 4 21 0
3 -4 -21 0
2 4 22 0
2 -4 -22 0
8 4 23 0
8 -4 -23 0
2 4 24 0
2 -4 -24 0
8 4 25 0
8 -4 -25 0
2 4 26 0
2 -4 -26 0
8 4 27 0
8 -4 -27 0
1 4 28 0
1 -4 -28 0
10 4 29 0
10 -4 -29 0
1 4 30 0
1 -4 -30 0
6 4 31 0
6 -4 -31 0
2 4 32 0
2 -4 -32 0
3 4 33 0
3 -4 -33 0
8 4 34 0
8 -4 -34 0
8 4 35 0
8 -4 -35 0
7 4 36 0
7 -4 -36 0
10 4 37 0
10 -4 -37 0
7 4 38 0
7 -4 -38 0
8 4 39 0
8 -4 -39 0
1 4 40 0
1 -4 -40 0
2 4 41 0
2 -4 -41 0
6 5 6 0
6 -5 -6 0
1 5 7 0
1 -5 -7 0
1 5 8 0
1 -5 -8 0
3 5 9 0
3 -5 -9 0
5 5 10 0
5 -5 -10 0
9 5 11 0
9 -5 -11 0
6 5 12 0
6 -5 -12 0
8 5 13 0
8 -5 -13 0
1 5 14 0
1 -5 -14 0
2 5 15 0
2 -5 -15 0
10 5 16 0
10 -5 -16 0
3 5 17 0
3 -5 -17 0
9 5 18 0
9 -5 -18 0
2 5 19 0
2 -5 -19 0
10 5 20 0
10 -5 -20 0
1 5 21 0
1 -5 -21 0
9 5 22 0
9 -5 -22 0
1 5 23 0
1 -5 -23 0
1 5 24 0
1 -5 -24 0
10 5 25 0
10 -5 -25 0
6 5 26 0
6 -5 -26 0
2 5 27 0
2 -5 -27 0
2 5 28 0
2 -5 -28 0
4 5 29 0
4 -5 -29 0
10 5 30 0
10 -5 -30 0
9 5 31 0
9 -5 -31 0
4 5 32 0
4 -5 -32 0
6 5 33 0
6 -5 -33 0
6 5 34 0
6 -5 -34 0
5 5 35 0
5 -5 -35 0
7 5 36 0
7 -5 -36 0
1 5 37 0
1 -5 -37 0
6 5 38 0
6 -5 -38 0
8 5 39 0
8 -5 -39 0
4 5 40 0
4 -5 -40 0
10 5 41 0
10 -5 -41 0
6 6 7 0
6 -6 -7 0
9 6 8 0
9 -6 -8 0
8 6 9 0
8 -6 -9 0
7 6 10 0
7 -6 -10 0
1 6 11 0
1 -6 -11 0
8 6 12 0
8 -6 -12 0
9 6 13 0
9 -6 -13 0
10 6 14 0
10 -6 -14 0
9 6 15 0
9 -6 -15 0
9 6 16 0
9 -6 -16 0
10 6 17 0
10 -6 -17 0
8 6 18 0
8 -6 -18 0
10 6 19 0
10 -6 -19 0
10 6 20 0
10 -6 -20 0
7 6 21 0
7 -6 -21 0
5 6 22 0
5 -6 -22 0
2 6 23 0
2 -6 -23 0
9 6 24 0
9 -6 -24 0
9 6 25 0
9 -6 -25 0
1 6 26 0
1 -6 -26 0
7 6 27 0
7 -6 -27 0
3 6 28 0
3 -6 -28 0
7 6 29 0
7 -6 -29 0
3 6 30 0
3 -6 -30 0
8 6 31 0
8 -6 -31 0
4 6 32 0
4 -6 -32 0
4 6 33 0
4 -6 -33 0
3 6 34 0
3 -6 -34 0
1 6 35 0
1 -6 -35 0
7 6 36 0
7 -6 -36 0
3 6 37 0
3 -6 -37 0
7 6 38 0
7 -6 -38 0
6 6 39 0
6 -6 -39 0
10 6 40 0
10 -6 -40 0
3 6 41 0
3 -6 -41 0
6 7 8 0
6 -7 -8 0
8 7 9 0
8 -7 -9 0
2 7 10 0
2 -7 -10 0
5 7 11 0
5 -7 -11 0
6 7 12 0
6 -7 -12 0
10 7 13 0
10 -7 -13 0
5 7 14 0
5 -7 -14 0
4 7 15 0
4 -7 -15 0
9 7 16 0
9 -7 -16 0
5 7 17 0
5 -7 -17 0
1 7 18 0
1 -7 -18 0
4 7 19 0
4 -7 -19 0
6 7 20 0
6 -7 -20 0
9 7 21 0
9 -7 -21 0
3 7 22 0
3 -7 -22 0
7 7 23 0
7 -7 -23 0
5 7 24 0
5 -7 -24 0
5 7 25 0
5 -7 -25 0
4 7 26 0
4 -7 -26 0
8 7 27 0
8 -7 -27 0
2 7 28 0
2 -7 -28 0
7 7 29 0
7 -7 -29 0
1 7 30 0
1 -7 -30 0
5 7 31 0
5 -7 -31 0
7 7 32 0
7 -7 -32 0
7 7 33 0
7 -7 -33 0
7 7 34 0
7 -7 -34 0
4 7 35 0
4 -7 -35 0
2 7 36 0
2 -7 -36 0
7 7 37 0
7 -7 -37 0
7 7 38 0
7 -7 -38 0
8 7 39 0
8 -7 -39 0
4 7 40 0
4 -7 -40 0
8 7 41 0
8 -7 -41 0
3 8 9 0
3 -8 -9 0
10 8 10 0
10 -8 -10 0
7 8 11 0
7 -8 -11 0
7 8 12 0
7 -8 -12 0
3 8 13 0
3 -8 -13 0
6 8 14 0
6 -8 -14 0
1 8 15 0
1 -8 -15 0
3 8 16 0
3 -8 -16 0
9 8 17 0
9 -8 -17 0
7 8 18 0
7 -8 -18 0
1 8 19 0
1 -8 -19 0
2 8 20 0
2 -8 -20 0
4 8 21 0
4 -8 -21 0
6 8 22 0
6 -8 -22 0
6 8 23 0
6 -8 -23 0
7 8 24 0
7 -8 -24 0
3 8 25 0
3 -8 -25 0
8 8 26 0
8 -8 -26 0
3 8 27 0
3 -8 -27 0
4 8 28 0
4 -8 -28 0
2 8 29 0
2 -8 -29 0
10 8 30 0
10 -8 -30 0
1 8 31 0
1 -8 -31 0
9 8 32 0
9 -8 -32 0
4 8 33 0
4 -8 -33 0
2 8 34 0
2 -8 -34 0
5 8 35 0
5 -8 -35 0
10 8 36 0
10 -8 -36 0
10 8 37 0
10 -8 -37 0
8 8 38 0
8 -8 -38 0
7 8 39 0
7 -8 -39 0
2 8 40 0
2 -8 -40 0
7 8 41 0
7 -8 -41 0
4 9 10 0
4 -9 -10 0
8 9 11 0
8 -9 -11 0
10 9 12 0
10 -9 -12 0
10 9 13 0
10 -9 -13 0
9 9 14 0
9 -9 -14 0
3 9 15 0
3 -9 -15 0
8 9 16 0
8 -9 -16 0
6 9 17 0
6 -9 -17 0
3 9 18 0
3 -9 -18 0
10 9 19 0
10 -9 -19 0
10 9 20 0
10 -9 -20 0
9 9 21 0
9 -9 -21 0
5 9 22 0
5 -9 -22 0
6 9 23 0
6 -9 -23 0
2 9 24 0
2 -9 -24 0
3 9 25 0
3 -9 -25 0
9 9 26 0
9 -9 -26 0
5 9 27 0
5 -9 -27 0
5 9 28 0
5 -9 -28 0
9 9 29 0
9 -9 -29 0
5 9 30 0
5 -9 -30 0
3 9 31 0
3 -9 -31 0
2 9 32 0
2 -9 -32 0
7 9 33 0
7 -9 -33 0
8 9 34 0
8 -9 -34 0
2 9 35 0
2 -9 -35 0
7 9 36 0
7 -9 -36 0
5 9 37 0
5 -9 -37 0
9 9 38 0
9 -9 -38 0
8 9 39 0
8 -9 -39 0
2 9 40 0
2 -9 -40 0
3 9 41 0
3 -9 -41 0
5 10 11 0
5 -10 -11 0
2 10 12 0
2 -10 -12 0
2 10 13 0
2 -10 -13 0
4 10 14 0
4 -10 -14 0
4 10 15 0
4 -10 -15 0
10 10 16 0
10 -10 -16 0
10 10 17 0
10 -10 -17 0
7 10 18 0
7 -10 -18 0
9 10 19 0
9 -10 -19 0
9 10 20 0
9 -10 -20 0
5 10 21 0
5 -10 -21 0
4 10 22 0
4 -10 -22 0
4 10 23 0
4 -10 -23 0
7 10 24 0
7 -10 -24 0
7 10 25 0
7 -10 -25 0
3 10 26 0
3 -10 -26 0
2 10 27 0
2 -10 -27 0
1 10 28 0
1 -10 -28 0
2 10 29 0
2 -10 -29 0
7 10 30 0
7 -10 -30 0
4 10 31 0
4 -10 -31 0
3 10 32 0
3 -10 -32 0
4 10 33 0
4 -10 -33 0
1 10 34 0
1 -10 -34 0
5 10 35 0
5 -10 -35 0
10 10 36 0
10 -10 -36 0
6 10 37 0
6 -10 -37 0
3 10 38 0
3 -10 -38 0
7 10 39 0
7 -10 -39 0
8 10 40 0
8 -10 -40 0
5 10 41 0
5 -10 -41 0
2 11 12 0
2 -11 -12 0
9 11 13 0
9 -11 -13 0
7 11 14 0
7 -11 -14 0
6 11 15 0
6 -11 -15 0
3 11 16 0
3 -11 -16 0
6 11 17 0
6 -11 -17 0
5 11 18 0
5 -11 -18 0
9 11 19 0
9 -11 -19 0
4 11 20 0
4 -11 -20 0
3 11 21 0
3 -11 -21 0
4 11 22 0
4 -11 -22 0
8 11 23 0
8 -11 -23 0
7 11 24 0
7 -11 -24 0
10 11 25 0
10 -11 -25 0
4 11 26 0
4 -11 -26 0
9 11 27 0
9 -11 -27 0
2 11 28 0
2 -11 -28 0
5 11 29 0
5 -11 -29 0
1 11 30 0
1 -11 -30 0
8 11 31 0
8 -11 -31 0
8 11 32 0
8 -11 -32 0
3 11 33 0
3 -11 -33 0
2 11 34 0
2 -11 -34 0
9 11 35 0
9 -11 -35 0
8 11 36 0
8 -11 -36 0
1 11 37 0
1 -11 -37 0
5 11 38 0
5 -11 -38 0
10 11 39 0
10 -11 -39 0
8 11 40 0
8 -11 -40 0
3 11 41 0
3 -11 -41 0
5 12 13 0
5 -12 -13 0
9 12 14 0
9 -12 -14 0
1 12 15 0
1 -12 -15 0
1 12 16 0
1 -12 -16 0
4 12 17 0
4 -12 -17 0
4 12 18 0
4 -12 -18 0
7 12 19 0
7 -12 -19 0
9 12 20 0
9 -12 -20 0
2 12 21 0
2 -12 -21 0
1 12 22 0
1 -12 -22 0
1 12 23 0
1 -12 -23 0
5 12 24 0
5 -12 -24 0
8 12 25 0
8 -12 -25 0
7 12 26 0
7 -12 -26 0
5 12 27 0
5 -12 -27 0
2 12 28 0
2 -12 -28 0
6 12 29 0
6 -12 -29 0
6 12 30 0
6 -12 -30 0
6 12 31 0
6 -12 -31 0
6 12 32 0
6 -12 -32 0
4 12 33 0
4 -12 -33 0
4 12 34 0
4 -12 -34 0
9 12 35 0
9 -12 -35 0
5 12 36 0
5 -12 -36 0
2 12 37 0
2 -12 -37 0
7 12 38 0
7 -12 -38 0
6 12 39 0
6 -12 -39 0
7 12 40 0
7 -12 -40 0
6 12 41 0
6 -12 -41 0
3 13 14 0
3 -13 -14 0
9 13 15 0
9 -13 -15 0
1 13 16 0
1 -13 -16 0
1 13 17 0
1 -13 -17 0
10 13 18 0
10 -13 -18 0
2 13 19 0
2 -13 -19 0
5 13 20 0
5 -13 -20 0
3 13 21 0
3 -13 -21 0
9 13 22 0
9 -13 -22 0
3 13 23 0
3 -13 -23 0
4 13 24 0
4 -13 -24 0
9 13 25 0
9 -13 -25 0
4 13 26 0
4 -13 -26 0
9 13 27 0
9 -13 -27 0
7 13 28 0
7 -13 -28 0
1 13 29 0
1 -13 -29 0
3 13 30 0
3 -13 -30 0
8 13 31 0
8 -13 -31 0
7 13 32 0
7 -13 -32 0
9 13 33 0
9 -13 -33 0
4 13 34 0
4 -13 -34 0
3 13 35 0
3 -13 -35 0
2 13 36 0
2 -13 -36 0
7 13 37 0
7 -13 -37 0
2 13 38 0
2 -13 -38 0
7 13 39 0
7 -13 -39 0
8 13 40 0
8 -13 -40 0
8 13 41 0
8 -13 -41 0
3 14 15 0
3 -14 -15 0
5 14 16 0
5 -14 -16 0
4 14 17 0
4 -14 -17 0
5 14 18 0
5 -14 -18 0
3 14 19 0
3 -14 -19 0
4 14 20 0
4 -14 -20 0
6 14 21 0
6 -14 -21 0
2 14 22 0
2 -14 -22 0
6 14 23 0
6 -14 -23 0
1 14 24 0
1 -14 -24 0
4 14 25 0
4 -14 -25 0
4 14 26 0
4 -14 -26 0
4 14 27 0
4 -14 -27 0
8 14 28 0
8 -14 -28 0
3 14 29 0
3 -14 -29 0
7 14 30 0
7 -14 -30 0
6 14 31 0
6 -14 -31 0
10 14 32 0
10 -14 -32 0
7 14 33 0
7 -14 -33 0
9 14 34 0
9 -14 -34 0
7 14 35 0
7 -14 -35 0
4 14 36 0
4 -14 -36 0
7 14 37 0
7 -14 -37 0
1 14 38 0
1 -14 -38 0
6 14 39 0
6 -14 -39 0
9 14 40 0
9 -14 -40 0
7 14 41 0
7 -14 -41 0
7 15 16 0
7 -15 -16 0
6 15 17 0
6 -15 -17 0
5 15 18 0
5 -15 -18 0
4 15 19 0
4 -15 -19 0
8 15 20 0
8 -15 -20 0
9 15 21 0
9 -15 -21 0
7 15 22 0
7 -15 -22 0
2 15 23 0
2 -15 -23 0
1 15 24 0
1 -15 -24 0
1 15 25 0
1 -15 -25 0
7 15 26 0
7 -15 -26 0
2 15 27 0
2 -15 -27 0
7 15 28 0
7 -15 -28 0
8 15 29 0
8 -15 -29 0
6 15 30 0
6 -15 -30 0
1 15 31 0
1 -15 -31 0
1 15 32 0
1 -15 -32 0
4 15 33 0
4 -15 -33 0
3 15 34 0
3 -15 -34 0
7 15 35 0
7 -15 -35 0
9 15 36 0
9 -15 -36 0
2 15 37 0
2 -15 -37 0
4 15 38 0
4 -15 -38 0
7 15 39 0
7 -15 -39 0
9 15 40 0
9 -15 -40 0
7 15 41 0
7 -15 -41 0
4 16 17 0
4 -16 -17 0
9 16 18 0
9 -16 -18 0
2 16 19 0
2 -16 -19 0
2 16 20 0
2 -16 -20 0
6 16 21 0
6 -16 -21 0
9 16 22 0
9 -16 -22 0
7 16 23 0
7 -16 -23 0
10 16 24 0
10 -16 -24 0
2 16 25 0
2 -16 -25 0
4 16 26 0
4 -16 -26 0
8 16 27 0
8 -16 -27 0
9 16 28 0
9 -16 -28 0
6 16 29 0
6 -16 -29 0
8 16 30 0
8 -16 -30 0
10 16 31 0
10 -16 -31 0
3 16 32 0
3 -16 -32 0
10 16 33 0
10 -16 -33 0
6 16 34 0
6 -16 -34 0
10 16 35 0
10 -16 -35 0
5 16 36 0
5 -16 -36 0
6 16 37 0
6 -16 -37 0
10 16 38 0
10 -16 -38 0
8 16 39 0
8 -16 -39 0
9 16 40 0
9 -16 -40 0
6 16 41 0
6 -16 -41 0
7 17 18 0
7 -17 -18 0
10 17 19 0
10 -17 -19 0
10 17 20 0
10 -17 -20 0
4 17 21 0
4 -17 -21 0
9 17 22 0
9 -17 -22 0
6 17 23 0
6 -17 -23 0
7 17 24 0
7 -17 -24 0
8 17 25 0
8 -17 -25 0
8 17 26 0
8 -17 -26 0
8 17 27 0
8 -17 -27 0
3 17 28 0
3 -17 -28 0
7 17 29 0
7 -17 -29 0
5 17 30 0
5 -17 -30 0
2 17 31 0
2 -17 -31 0
8 17 32 0
8 -17 -32 0
9 17 33 0
9 -17 -33 0
9 17 34 0
9 -17 -34 0
7 17 35 0
7 -17 -35 0
5 17 36 0
5 -17 -36 0
7 17 37 0
7 -17 -37 0
6 17 38 0
6 -17 -38 0
7 17 39 0
7 -17 -39 0
6 17 40 0
6 -17 -40 0
2 17 41 0
2 -17 -41 0
6 18 19 0
6 -18 -19 0
1 18 20 0
1 -18 -20 0
8 18 21 0
8 -18 -21 0
6 18 22 0
6 -18 -22 0
9 18 23 0
9 -18 -23 0
6 18 24 0
6 -18 -24 0
2 18 25 0
2 -18 -25 0
5 18 26 0
5 -18 -26 0
6 18 27 0
6 -18 -27 0
1 18 28 0
1 -18 -28 0
9 18 29 0
9 -18 -29 0
4 18 30 0
4 -18 -30 0
7 18 31 0
7 -18 -31 0
5 18 32 0
5 -18 -32 0
2 18 33 0
2 -18 -33 0
5 18 34 0
5 -18 -34 0
3 18 35 0
3 -18 -35 0
5 18 36 0
5 -18 -36 0
1 18 37 0
1 -18 -37 0
8 18 38 0
8 -18 -38 0
6 18 39 0
6 -18 -39 0
9 18 40 0
9 -18 -40 0
6 18 41 0
6 -18 -41 0
5 19 20 0
5 -19 -20 0
5 19 21 0
5 -19 -21 0
10 19 22 0
10 -19 -22 0
1 19 23 0
1 -19 -23 0
1 19 24 0
1 -19 -24 0
7 19 25 0
7 -19 -25 0
6 19 26 0
6 -19 -26 0
3 19 27 0
3 -19 -27 0
3 19 28 0
3 -19 -28 0
7 19 29 0
7 -19 -29 0
10 19 30 0
10 -19 -30 0
8 19 31 0
8 -19 -31 0
5 19 32 0
5 -19 -32 0
5 19 33 0
5 -19 -33 0
9 19 34 0
9 -19 -34 0
10 19 35 0
10 -19 -35 0
10 19 36 0
10 -19 -36 0
9 19 37 0
9 -19 -37 0
8 19 38 0
8 -19 -38 0
4 19 39 0
4 -19 -39 0
6 19 40 0
6 -19 -40 0
3 19 41 0
3 -19 -41 0
5 20 21 0
5 -20 -21 0
10 20 22 0
10 -20 -22 0
5 20 23 0
5 -20 -23 0
9 20 24 0
9 -20 -24 0
10 20 25 0
10 -20 -25 0
2 20 26 0
2 -20 -26 0
5 20 27 0
5 -20 -27 0
8 20 28 0
8 -20 -28 0
8 20 29 0
8 -20 -29 0
10 20 30 0
10 -20 -30 0
3 20 31 0
3 -20 -31 0
8 20 32 0
8 -20 -32 0
10 20 33 0
10 -20 -33 0
4 20 34 0
4 -20 -34 0
5 20 35 0
5 -20 -35 0
6 20 36 0
6 -20 -36 0
6 20 37 0
6 -20 -37 0
7 20 38 0
7 -20 -38 0
2 20 39 0
2 -20 -39 0
5 20 40 0
5 -20 -40 0
4 20 41 0
4 -20 -41 0
7 21 22 0
7 -21 -22 0
10 21 23 0
10 -21 -23 0
3 21 24 0
3 -21 -24 0
7 21 25 0
7 -21 -25 0
9 21 26 0
9 -21 -26 0
2 21 27 0
2 -21 -27 0
4 21 28 0
4 -21 -28 0
2 21 29 0
2 -21 -29 0
7 21 30 0
7 -21 -30 0
6 21 31 0
6 -21 -31 0
7 21 32 0
7 -21 -32 0
6 21 33 0
6 -21 -33 0
1 21 34 0
1 -21 -34 0
6 21 35 0
6 -21 -35 0
6 21 36 0
6 -21 -36 0
3 21 37 0
3 -21 -37 0
1 21 38 0
1 -21 -38 0
4 21 39 0
4 -21 -39 0
1 21 40 0
1 -21 -40 0
10 21 41 0
10 -21 -41 0
7 22 23 0
7 -22 -23 0
8 22 24 0
8 -22 -24 0
9 22 25 0
9 -22 -25 0
10 22 26 0
10 -22 -26 0
2 22 27 0
2 -22 -27 0
5 22 28 0
5 -22 -28 0
5 22 29 0
5 -22 -29 0
8 22 30 0
8 -22 -30 0
7 22 31 0
7 -22 -31 0
10 22 32 0
10 -22 -32 0
2 22 33 0
2 -22 -33 0
3 22 34 0
3 -22 -34 0
9 22 35 0
9 -22 -35 0
4 22 36 0
4 -22 -36 0
9 22 37 0
9 -22 -37 0
8 22 38 0
8 -22 -38 0
5 22 39 0
5 -22 -39 0
3 22 40 0
3 -22 -40 0
10 22 41 0
10 -22 -41 0
2 23 24 0
2 -23 -24 0
9 23 25 0
9 -23 -25 0
7 23 26 0
7 -23 -26 0
8 23 27 0
8 -23 -27 0
10 23 28 0
10 -23 -28 0
2 23 29 0
2 -23 -29 0
3 23 30 0
3 -23 -30 0
2 23 31 0
2 -23 -31 0
3 23 32 0
3 -23 -32 0
7 23 33 0
7 -23 -33 0
2 23 34 0
2 -23 -34 0
2 23 35 0
2 -23 -35 0
3 23 36 0
3 -23 -36 0
10 23 37 0
10 -23 -37 0
1 23 38 0
1 -23 -38 0
2 23 39 0
2 -23 -39 0
2 23 40 0
2 -23 -40 0
5 23 41 0
5 -23 -41 0
7 24 25 0
7 -24 -25 0
10 24 26 0
10 -24 -26 0
2 24 27 0
2 -24 -27 0
7 24 28 0
7 -24 -28 0
1 24 29 0
1 -24 -29 0
4 24 30 0
4 -24 -30 0
5 24 31 0
5 -24 -31 0
5 24 32 0
5 -24 -32 0
3 24 33 0
3 -24 -33 0
3 24 34 0
3 -24 -34 0
10 24 35 0
10 -24 -35 0
6 24 36 0
6 -24 -36 0
2 24 37 0
2 -24 -37 0
1 24 38 0
1 -24 -38 0
5 24 39 0
5 -24 -39 0
9 24 40 0
9 -24 -40 0
8 24 41 0
8 -24 -41 0
4 25 26 0
4 -25 -26 0
10 25 27 0
10 -25 -27 0
1 25 28 0
1 -25 -28 0
6 25 29 0
6 -25 -29 0
3 25 30 0
3 -25 -30 0
7 25 31 0
7 -25 -31 0
7 25 32 0
7 -25 -32 0
4 25 33 0
4 -25 -33 0
9 25 34 0
9 -25 -34 0
7 25 35 0
7 -25 -35 0
4 25 36 0
4 -25 -36 0
1 25 37 0
1 -25 -37 0
8 25 38 0
8 -25 -38 0
9 25 39 0
9 -25 -39 0
7 25 40 0
7 -25 -40 0
7 25 41 0
7 -25 -41 0
10 26 27 0
10 -26 -27 0
4 26 28 0
4 -26 -28 0
8 26 29 0
8 -26 -29 0
3 26 30 0
3 -26 -30 0
9 26 31 0
9 -26 -31 0
2 26 32 0
2 -26 -32 0
6 26 33 0
6 -26 -33 0
1 26 34 0
1 -26 -34 0
2 26 35 0
2 -26 -35 0
2 26 36 0
2 -26 -36 0
3 26 37 0
3 -26 -37 0
2 26 38 0
2 -26 -38 0
6 26 39 0
6 -26 -39 0
1 26 40 0
1 -26 -40 0
9 26 41 0
9 -26 -41 0
10 27 28 0
10 -27 -28 0
1 27 29 0
1 -27 -29 0
10 27 30 0
10 -27 -30 0
5 27 31 0
5 -27 -31 0
3 27 32 0
3 -27 -32 0
6 27 33 0
6 -27 -33 0
2 27 34 0
2 -27 -34 0
6 27 35 0
6 -27 -35 0
5 27 36 0
5 -27 -36 0
9 27 37 0
9 -27 -37 0
10 27 38 0
10 -27 -38 0
6 27 39 0
6 -27 -39 0
6 27 40 0
6 -27 -40 0
8 27 41 0
8 -27 -41 0
3 28 29 0
3 -28 -29 0
3 28 30 0
3 -28 -30 0
7 28 31 0
7 -28 -31 0
6 28 32 0
6 -28 -32 0
1 28 33 0
1 -28 -33 0
10 28 34 0
10 -28 -34 0
4 28 35 0
4 -28 -35 0
3 28 36 0
3 -28 -36 0
6 28 37 0
6 -28 -37 0
5 28 38 0
5 -28 -38 0
4 28 39 0
4 -28 -39 0
7 28 40 0
7 -28 -40 0
7 28 41 0
7 -28 -41 0
5 29 30 0
5 -29 -30 0
3 29 31 0
3 -29 -31 0
8 29 32 0
8 -29 -32 0
4 29 33 0
4 -29 -33 0
3 29 34 0
3 -29 -34 0
8 29 35 0
8 -29 -35 0
3 29 36 0
3 -29 -36 0
7 29 37 0
7 -29 -37 0
1 29 38 0
1 -29 -38 0
9 29 39 0
9 -29 -39 0
9 29 40 0
9 -29 -40 0
7 29 41 0
7 -29 -41 0
4 30 31 0
4 -30 -31 0
7 30 32 0
7 -30 -32 0
6 30 33 0
6 -30 -33 0
9 30 34 0
9 -30 -34 0
3 30 35 0
3 -30 -35 0
3 30 36 0
3 -30 -36 0
1 30 37 0
1 -30 -37 0
6 30 38 0
6 -30 -38 0
9 30 39 0
9 -30 -39 0
7 30 40 0
7 -30 -40 0
6 30 41 0
6 -30 -41 0
9 31 32 0
9 -31 -32 0
10 31 33 0
10 -31 -33 0
8 31 34 0
8 -31 -34 0
4 31 35 0
4 -31 -35 0
4 31 36 0
4 -31 -36 0
1 31 37 0
1 -31 -37 0
1 31 38 0
1 -31 -38 0
1 31 39 0
1 -31 -39 0
5 31 40 0
5 -31 -40 0
3 31 41 0
3 -31 -41 0
8 32 33 0
8 -32 -33 0
9 32 34 0
9 -32 -34 0
6 32 35 0
6 -32 -35 0
5 32 36 0
5 -32 -36 0
1 32 37 0
1 -32 -37 0
2 32 38 0
2 -32 -38 0
5 32 39 0
5 -32 -39 0
10 32 40 0
10 -32 -40 0
1 32 41 0
1 -32 -41 0
1 33 34 0
1 -33 -34 0
3 33 35 0
3 -33 -35 0
8 33 36 0
8 -33 -36 0
7 33 37 0
7 -33 -37 0
1 33 38 0
1 -33 -38 0
10 33 39 0
10 -33 -39 0
9 33 40 0
9 -33 -40 0
2 33 41 0
2 -33 -41 0
5 34 35 0
5 -34 -35 0
8 34 36 0
8 -34 -36 0
8 34 37 0
8 -34 -37 0
1 34 38 0
1 -34 -38 0
6 34 39 0
6 -34 -39 0
8 34 40 0
8 -34 -40 0
8 34 41 0
8 -34 -41 0
10 35 36 0
10 -35 -36 0
1 35 37 0
1 -35 -37 0
8 35 38 0
8 -35 -38 0
10 35 39 0
10 -35 -39 0
2 35 40 0
2 -35 -40 0
3 35 41 0
3 -35 -41 0
3 36 37 0
3 -36 -37 0
9 36 38 0
9 -36 -38 0
1 36 39 0
1 -36 -39 0
8 36 40 0
8 -36 -40 0
3 36 41 0
3 -36 -41 0
2 37 38 0
2 -37 -38 0
10 37 39 0
10 -37 -39 0
8 37 40 0
8 -37 -40 0
1 37 41 0
1 -37 -41 0
10 38 39 0
10 -38 -39 0
9 38 40 0
9 -38 -40 0
4 38 41 0
4 -38 -41 0
7 39 40 0
7 -39 -40 0
5 39 41 0
5 -39 -41 0
5 40 41 0
5 -40 -41 0
